% File represents an instance of a Composite Structure problem to be solved by a CP framework
% Created on 2025-03-26 10:41:17.385
T = 50;
n = 9;
m = 12;
edges = [(1, 2),
(4, 5),
(7, 8),
(2, 3),
(5, 6),
(8, 9),
(4, 1),
(7, 4),
(5, 2),
(8, 5),
(6, 3),
(9, 6)];
counts = [|4, 16, 4, 14,
|4, 16, 4, 8,
|4, 14, 4, 8,
|4, 18, 4, 18,
|4, 16, 4, 14,
|4, 16, 4, 8,
|6, 20, 6, 18,
|6, 16, 6, 16,
|4, 16, 4, 14|];
